CPXPARAM_TimeLimit                               3600
CPXPARAM_Read_DataCheck                          1
CPXPARAM_MIP_Strategy_HeuristicFreq              -1
Parallel mode: deterministic, using up to 8 threads for concurrent optimization.
Tried aggregator 1 time.
LP Presolve eliminated 68606 rows and 51300 columns.
Reduced LP has 51974 rows, 3151 columns, and 154948 nonzeros.
Presolve time = 0.05 sec. (58.99 ticks)

Iteration log . . .
Iteration:     1   Dual objective     =           932.000000
Perturbation started.
Iteration:   365   Dual objective     =           932.000000
Iteration:   505   Dual objective     =           932.003932
Initializing dual steep norms . . .
Iteration:   506   Dual objective     =           932.004238
Iteration:   993   Dual objective     =           932.007599
Iteration:  1541   Dual objective     =           932.009618
Iteration:  2163   Dual objective     =           932.012162
Iteration:  2674   Dual objective     =           932.014404
Iteration:  3082   Dual objective     =           932.020647
Iteration:  3540   Dual objective     =           932.022792
Iteration:  3953   Dual objective     =           932.025533
Iteration:  4470   Dual objective     =           973.750133
Iteration:  5059   Dual objective     =          1116.699623
Iteration:  5642   Dual objective     =          1116.768309
Iteration:  6173   Dual objective     =          1121.021381
Iteration:  6767   Dual objective     =          1122.750523
Iteration:  7266   Dual objective     =          1127.446749
Iteration:  7831   Dual objective     =          1137.687037
Iteration:  8333   Dual objective     =          1138.974586
Iteration:  8765   Dual objective     =          1139.081825
Iteration:  9264   Dual objective     =          1139.222209
Removing perturbation.

Barrier solved model.

